NAME : tsp35_8.193.tour
COMMENT : Length = 193
COMMENT : Found by LKH [Keld Helsgaun]
TYPE : TOUR
DIMENSION : 35
TOUR_SECTION
1
6
22
29
2
14
13
25
28
12
27
9
26
34
32
4
5
19
15
20
21
7
16
30
24
10
35
33
8
17
11
23
3
18
31
-1
EOF
